153
100
15
32
49
15
56
16
14
2
2
44
14
28
57
37
12
46
45
30
64
52
43
4
15
27
48
24
10
66
27
27
49
75
8
17
35
22
11
8
8
8
45
9
39
38
21
22
20
22
52
65
17
63
16
4
19
61
9
72
11
21
8
34
13
27
2
43
22
35
11
14
26
37
73
24
6
59
59
36
69
37
74
5
43
38
12
32
4
34
1
7
32
5
31
4
39
52
21
41
14
14
46
38
3
10
23
43
17
32
2
18
12
75
11
60
34
55
57
38
9
6
2
15
25
10
6
31
59
35
35
26
16
35
13
13
56
30
37
36
22
66
40
25
44
36
6
9
54
31
14
33
4
57
64
